12156.0 1388629.0 
12234.0 1380947.0 
12223.0 1381384.0 
12351.0 1375746.0 
12347.0 1376376.0 
12252.0 1379960.0 
12328.0 1377181.0 
12216.0 1383223.0 
12306.0 1378363.0 
12164.0 1388127.0 
12309.0 1377231.0 
12153.0 1390385.0 
12214.0 1383478.0 
12130.0 1395278.0 
12165.0 1385596.0 
12266.0 1379909.0 
12211.0 1383789.0 
12361.0 1374505.0 
